p cnf 15 50
1 2 -13 0
-8 10 14 0
-9 10 -15 0
-1 -12 -15 0
1 -12 14 0
-1 5 9 0
-4 12 13 0
2 -5 6 0
-9 12 -15 0
-4 -5 -8 0
-2 -7 10 0
-3 13 -15 0
-7 -8 12 0
5 12 15 0
4 -6 -10 0
3 -11 -12 0
-5 7 -9 0
1 4 7 0
6 7 -9 0
-2 4 9 0
1 5 -14 0
4 -11 15 0
-7 -9 -14 0
-2 7 15 0
2 6 9 0
-12 -13 15 0
8 10 14 0
-4 -13 14 0
-4 11 -12 0
-11 -13 14 0
4 7 -12 0
2 -11 -15 0
-5 -8 14 0
1 -4 -10 0
8 -12 -13 0
2 -10 -14 0
-7 -9 14 0
-5 -13 15 0
1 2 -3 0
-5 7 11 0
3 10 -14 0
3 -7 -13 0
-7 8 -12 0
3 -7 13 0
5 -13 -14 0
1 7 10 0
9 11 -13 0
-7 -13 15 0
4 11 13 0
-8 9 13 0
